5 5
8 5 5 4 3 4 2 13 4 13 1 19 2 3 20 1 5 4 5 16 1 10 2 14 3 17 2 2 3 1 20 2 4 14 5 4 1 3 17 2 2 5 4 17 3 5 8 3 12 2 6
4 1 3 6 3 1 6 2 15 4 9 1 1 13 5 3 2 1 10 4 20 5 14 2 10
8 4 5 13 3 11 2 6 4 18 3 5 7 2 11 1 13 3 4 7 3 5 5 3 3 4 3 2 20 1 15 2 4 6 3 7 4 3 10 2 7 1 6 4 17 4 4 18 3 17 1 18 2 7 5 4 12 5 15 1 20 3 12 2 14
5 3 2 19 3 5 1 8 2 3 14 1 10 1 4 10 3 4 3 5 5 3 3 1 5 11
5 3 1 2 2 5 4 9 3 1 15 3 15 5 14 2 1 2 2 12 4 5 5 3 8 2 9 4 17 5 3 11 1 17 5 16 4 16 2 3